
(set-logic QF_BV)

(define-fun min () (_ BitVec 9) (bvnot (bvlshr (bvnot (_ bv0 9)) (_ bv1 9))))

(define-fun max () (_ BitVec 9) (bvnot min))

(define-fun udivtotal ((a (_ BitVec 9)) (b (_ BitVec 9))) (_ BitVec 9)
  (ite (= b (_ bv0 9)) (bvnot (_ bv0 9)) (bvudiv a b))
)
(define-fun uremtotal ((a (_ BitVec 9)) (b (_ BitVec 9))) (_ BitVec 9)
  (ite (= b (_ bv0 9)) a (bvurem a b))
)

(declare-fun s () (_ BitVec 9))
(declare-fun t () (_ BitVec 9))
(define-fun inv ((s (_ BitVec 9)) (t (_ BitVec 9))) (_ BitVec 9) (bvsub (bvor s #b100000000) (bvand #b011111111 t)))
(define-fun l ((x (_ BitVec 9))) Bool  (bvsge (uremtotal s (inv s t)) t))
(define-fun SC () Bool (and (=> (bvsge s (_ bv0 9)) (bvsge s t)) (=> (and (bvslt s (_ bv0 9)) (bvsge t (_ bv0 9))) (bvugt (bvsub s t) t))))
(define-fun is_cond_inv () Bool (=> SC (l (inv s t))))

(assert (not is_cond_inv))
(check-sat)
